NAME : qa194
COMMENT : 194 locations in Qatar
COMMENT : Derived from National Imagery and Mapping Agency data
TYPE : TSP
ROBOT : 1
DIMENSION : 3
EDGE_WEIGHT_TYPE : EUC_2D
ROBOT_BUDGET_SECTION
1 200000
NODE_COORD_SECTION
1 440.0382 877.4398 13.0473 1
3 921.7792 588.0627 6.9011 1
4 225.0694 160.1997 6.3686 1
EOF
